754 874 409 529
738 858 360 466
731 851 407 527
737 857 360 475
734 854 413 533
831 951 410 530
780 900 367 487
764 884 364 484
697 817 374 494
836 956 360 468
785 905 369 489
861 981 496 616
842 962 446 566
717 837 411 531
747 867 392 512
727 847 368 488
754 874 403 523
889 1009 388 508
816 936 401 521
804 924 423 543
